;; Preprocessed for Astral solver
(set-info :status unsat)
;; variables
(declare-const x0 Loc)
(declare-const x1 Loc)
(declare-const x2 Loc)
(declare-const x3 Loc)
(declare-const x4 Loc)
(declare-const x5 Loc)
(declare-const x6 Loc)
(declare-const x7 Loc)
(declare-const x8 Loc)
(declare-const x9 Loc)
(declare-const x10 Loc)
(declare-const x11 Loc)
(declare-const x12 Loc)
(declare-const x13 Loc)
(declare-const x14 Loc)
(declare-const x15 Loc)
(declare-const x16 Loc)
(declare-const x17 Loc)

(assert 
		(sep 
			(= nil nil)
			(distinct nil x1)
			(distinct nil x3)
			(distinct nil x5)
			(distinct nil x7)
			(distinct nil x9)
			(distinct nil x11)
			(distinct nil x13)
			emp
		)

)

(assert (not 
			emp
))

(check-sat)
